COLUMNS

passenger_count
pickup_ID
dropoff_ID
request_time_sec
pickup_district
dropoff_district
LDuals
IDuals
vehicle_ID
pick_position
drop_position

REQUESTS_INFO
3      969       767       29523     290       290       248       248       24        1         2         
3      397       550       29547     168       189       161       161       38        1         2         
1      461       310       29552     189       127       159       159       47        1         3         
1      905       866       29607     290       290       121       121       60        1         2         
1      333       398       29603     119       168       127       127       86        1         2         
1      1048      1324      29594     291       129       205       205       177       1         4         
1      827       652       29599     291       189       128       128       179       1         3         
1      810       970       29558     290       290       179       179       203       1         2         
1      387       616       29568     299       131       196       196       205       1         2         
1      78        522       29586     9         52        112       112       235       1         2         
1      909       651       29584     290       189       168       168       309       1         2         
3      859       651       29535     290       189       214       214       314       1         2         
1      1087      1208      29600     291       192       152       152       318       1         2         
2      364       367       29597     299       299       172       172       374       1         3         
2      927       559       29597     290       189       176       176       461       1         2         
1      827       694       29603     291       189       124       124       478       1         2         
1      393       371       29608     52        52        124       124       527       1         2         
1      940       947       29549     291       290       236       236       528       1         2         
1      367       718       29602     299       189       148       148       545       1         2         
1      550       616       29581     189       131       159       159       548       1         3         
1      550       462       29584     189       189       156       156       548       2         4         
3      923       627       29506     290       189       253       253       600       1         2         
1      864       559       29561     290       189       203       203       627       1         2         
3      886       624       29570     290       189       213       213       636       1         2         
2      928       1010      29566     290       290       235       235       645       1         2         
3      345       502       29604     299       52        162.5     162.5     666       1         2         
1      377       532       29587     168       199       161       161       670       1         2         
1      1002      908       29591     291       290       168       168       684       1         3         
2      1005      575       29609     50        189       174       174       689       1         3         
3      886       624       29570     290       189       213       213       802       1         2         
1      328       416       29583     299       100       183       183       826       1         2         
2      902       717       29559     50        189       206       206       855       1         2         
1      1010      721       29601     290       290       162       162       883       1         4         
1      984       535       29476     291       189       336       336       960       1         2         
2      859       234       29565     290       87        184       184       984       1         3         
3      984       946       29584     291       290       228       228       1000      1         2         
1      1065      1206      29584     291       192       182       182       1023      1         3         
1      274       408       29572     87        299       206       206       1058      1         2         
1      850       651       29584     291       189       148       148       1079      1         3         
1      348       718       29600     299       189       178       178       1095      1         3         
1      923       863       29589     290       290       160       160       1099      1         3         
1      968       650       29554     290       189       223       223       1177      1         3         
2      291       237       29581     87        87        202       202       1210      1         3         
1      291       238       29590     87        87        203       203       1210      2         4         
2      847       572       29555     291       131       145       145       1214      1         2         
4      668       650       29599     280       189       102       102       1226      1         2         
1      345       171       29591     299       286       201       201       1272      1         2         
1      980       488       29605     291       199       103       103       1273      1         5         
2      309       326       29572     127       299       222       222       1334      1         2         
1      285       601       29600     299       189       101.5     101.5     1355      1         4         
1      865       1010      29607     290       290       149       149       1356      1         2         
1      1045      780       29598     291       291       179       179       1372      1         3         
2      436       671       29596     100       280       133       133       1379      1         3         
3      902       717       29559     50        189       206       206       1770      1         2         
1      255       483       29589     87        189       158       158       1790      1         3         
3      970       835       29541     290       290       253       253       1798      1         2         
1      237       507       29580     87        189       107       107       1842      1         2         
1      1091      1254      29586     291       84        238       238       1848      1         3         
3      968       949       29519     290       290       258       258       1851      1         2         
1      353       510       29609     119       199       136       136       1903      1         2         
1      311       395       29582     87        100       160       160       1912      1         2         
1      228       116       29604     266       9         157       157       1927      1         2         
2      582       1530      29610     189       296       0         0         0         0         0         
1      290       311       29610     127       87        0         0         0         0         0         
1      692       726       29610     280       290       0         0         0         0         0         
1      605       620       29610     189       131       0         0         0         0         0         
1      805       640       29610     291       131       0         0         0         0         0         
1      527       421       29611     52        168       0         0         0         0         0         
1      418       581       29611     168       189       0         0         0         0         0         
1      171       19        29611     286       98        0         0         0         0         0         
1      909       629       29612     290       189       0         0         0         0         0         
1      669       695       29612     280       189       0         0         0         0         0         
1      885       737       29612     290       189       0         0         0         0         0         
1      330       555       29612     127       199       0         0         0         0         0         
1      441       606       29612     168       189       0         0         0         0         0         
1      605       552       29612     189       189       0         0         0         0         0         
1      604       722       29612     189       290       0         0         0         0         0         
1      628       32        29612     189       98        0         0         0         0         0         
1      1207      851       29613     192       291       0         0         0         0         0         
1      737       697       29613     189       189       0         0         0         0         0         
1      161       356       29613     178       119       0         0         0         0         0         
3      527       475       29614     52        52        0         0         0         0         0         
2      527       475       29614     52        52        0         0         0         0         0         
1      863       905       29614     290       290       0         0         0         0         0         
3      296       10        29614     277       98        0         0         0         0         0         
1      304       628       29615     299       189       0         0         0         0         0         
3      438       624       29615     100       189       0         0         0         0         0         
3      438       624       29615     100       189       0         0         0         0         0         
2      34        604       29615     98        189       0         0         0         0         0         
2      487       355       29616     199       119       0         0         0         0         0         
3      354       287       29616     119       299       0         0         0         0         0         
1      194       439       29616     207       189       0         0         0         0         0         
1      619       48        29616     131       98        0         0         0         0         0         
3      354       287       29616     119       299       0         0         0         0         0         
1      418       504       29617     168       52        0         0         0         0         0         
1      284       353       29617     299       119       0         0         0         0         0         
1      838       652       29617     290       189       0         0         0         0         0         
1      626       624       29617     189       189       0         0         0         0         0         
2      801       1088      29617     291       291       0         0         0         0         0         
1      484       555       29618     189       199       0         0         0         0         0         
2      482       526       29619     189       52        0         0         0         0         0         
1      46        66        29619     98        98        0         0         0         0         0         
1      654       535       29619     189       189       0         0         0         0         0         
1      852       670       29619     291       280       0         0         0         0         0         
1      789       646       29620     290       280       0         0         0         0         0         
1      690       452       29620     131       52        0         0         0         0         0         
1      817       557       29620     290       189       0         0         0         0         0         
1      914       789       29620     291       290       0         0         0         0         0         
1      619       618       29621     131       131       0         0         0         0         0         
1      602       782       29621     189       291       0         0         0         0         0         
1      534       778       29621     199       131       0         0         0         0         0         
2      873       739       29621     291       189       0         0         0         0         0         
2      693       616       29622     280       131       0         0         0         0         0         
2      1171      1068      29622     192       291       0         0         0         0         0         
3      693       616       29622     280       131       0         0         0         0         0         
2      632       78        29622     189       9         0         0         0         0         0         
1      724       674       29622     290       189       0         0         0         0         0         
3      1171      1068      29622     192       291       0         0         0         0         0         
1      398       463       29623     168       168       0         0         0         0         0         
1      835       717       29623     290       189       0         0         0         0         0         
1      199       722       29623     178       290       0         0         0         0         0         
1      484       738       29623     189       189       0         0         0         0         0         
1      718       835       29623     189       290       0         0         0         0         0         
1      304       570       29623     299       52        0         0         0         0         0         
2      553       616       29623     189       131       0         0         0         0         0         
1      793       836       29623     290       290       0         0         0         0         0         
2      712       508       29624     131       199       0         0         0         0         0         
1      182       535       29624     178       189       0         0         0         0         0         
1      699       212       29624     290       266       0         0         0         0         0         
2      692       713       29624     280       131       0         0         0         0         0         
1      532       741       29624     199       50        0         0         0         0         0         
1      857       716       29624     290       189       0         0         0         0         0         
1      791       805       29624     290       291       0         0         0         0         0         
1      881       839       29625     290       290       0         0         0         0         0         
1      549       760       29625     52        291       0         0         0         0         0         
1      215       443       29625     178       168       0         0         0         0         0         
1      488       269       29625     199       127       0         0         0         0         0         
2      837       570       29625     290       52        0         0         0         0         0         
1      479       616       29626     52        131       0         0         0         0         0         
2      950       1176      29626     290       129       0         0         0         0         0         
3      950       1176      29626     290       129       0         0         0         0         0         
1      527       580       29626     52        189       0         0         0         0         0         
1      255       390       29626     87        52        0         0         0         0         0         
1      219       395       29626     87        100       0         0         0         0         0         
1      607       394       29626     189       100       0         0         0         0         0         
1      348       782       29626     299       291       0         0         0         0         0         
1      191       233       29627     266       206       0         0         0         0         0         
1      894       1139      29627     291       84        0         0         0         0         0         
1      475       571       29627     52        52        0         0         0         0         0         
1      311       531       29627     87        189       0         0         0         0         0         
3      31        578       29627     9         189       0         0         0         0         0         
3      31        578       29627     9         189       0         0         0         0         0         
1      690       579       29628     131       189       0         0         0         0         0         
1      949       512       29628     290       199       0         0         0         0         0         
1      331       219       29628     127       87        0         0         0         0         0         
1      969       721       29628     290       290       0         0         0         0         0         
2      1417      1263      29629     129       192       0         0         0         0         0         
1      78        64        29629     9         98        0         0         0         0         0         
1      902       760       29629     50        291       0         0         0         0         0         
3      923       1011      29629     290       84        0         0         0         0         0         
1      693       646       29629     280       280       0         0         0         0         0         
1      509       671       29629     199       280       0         0         0         0         0         
1      1106      801       29630     291       291       0         0         0         0         0         
1      557       285       29630     189       299       0         0         0         0         0         
2      481       671       29630     189       280       0         0         0         0         0         
1      155       199       29630     286       178       0         0         0         0         0         
1      549       437       29630     52        100       0         0         0         0         0         
2      1077      1211      29631     84        129       0         0         0         0         0         
1      137       529       29631     286       189       0         0         0         0         0         
1      336       560       29631     277       189       0         0         0         0         0         
1      938       671       29631     291       280       0         0         0         0         0         
1      556       61        29631     199       98        0         0         0         0         0         
3      393       924       29631     52        290       0         0         0         0         0         
3      393       924       29631     52        290       0         0         0         0         0         
1      694       580       29632     189       189       0         0         0         0         0         
1      119       455       29633     286       52        0         0         0         0         0         
2      952       795       29633     999       290       0         0         0         0         0         
1      641       779       29633     131       131       0         0         0         0         0         
1      893       801       29633     291       291       0         0         0         0         0         
1      664       368       29633     131       299       0         0         0         0         0         
1      375       278       29633     119       87        0         0         0         0         0         
1      862       836       29633     290       290       0         0         0         0         0         
1      887       795       29633     290       290       0         0         0         0         0         
1      960       1048      29634     291       291       0         0         0         0         0         
1      47        576       29634     98        189       0         0         0         0         0         
2      771       925       29634     290       290       0         0         0         0         0         
1      551       650       29634     189       189       0         0         0         0         0         
1      377       694       29634     168       189       0         0         0         0         0         
1      767       904       29634     290       290       0         0         0         0         0         
1      947       698       29635     290       189       0         0         0         0         0         
1      390       192       29635     52        266       0         0         0         0         0         
1      1010      350       29635     290       127       0         0         0         0         0         
1      629       670       29636     189       280       0         0         0         0         0         
1      350       269       29636     127       127       0         0         0         0         0         
1      718       875       29636     189       291       0         0         0         0         0         
2      1031      1208      29636     50        192       0         0         0         0         0         
1      1089      875       29636     291       291       0         0         0         0         0         
1      442       48        29636     168       98        0         0         0         0         0         
2      779       923       29636     131       290       0         0         0         0         0         
3      485       392       29636     189       52        0         0         0         0         0         
3      485       392       29636     189       52        0         0         0         0         0         
1      747       861       29637     290       290       0         0         0         0         0         
1      457       556       29637     52        199       0         0         0         0         0         
1      420       600       29637     168       280       0         0         0         0         0         
1      727       314       29637     290       119       0         0         0         0         0         
1      504       415       29637     52        100       0         0         0         0         0         
1      608       651       29637     189       189       0         0         0         0         0         
1      273       386       29637     206       299       0         0         0         0         0         
1      652       35        29638     189       98        0         0         0         0         0         
1      693       601       29638     280       189       0         0         0         0         0         
2      742       903       29638     290       290       0         0         0         0         0         
1      834       651       29639     290       189       0         0         0         0         0         
1      1000      626       29639     291       189       0         0         0         0         0         
1      604       719       29639     189       189       0         0         0         0         0         
2      78        736       29639     9         131       0         0         0         0         0         
3      78        736       29639     9         131       0         0         0         0         0         
